benchmarks_vrp/CMT1/fixed_c/CMT1_5.vrp
NAME: CMT1_5
TYPE: CVRP
COMMENT: 524.61 - Cluster Nr.5
DIMENSION: 5
CAPACITY: 160
EDGE_WEIGHT_TYPE: EUC_2D
NODE_COORD_TYPE: TWOD_COORDS
NODE_COORD_SECTION: 
5 52 64
4 30 40
1 62 63
2 63 69
3 57 58
DEPOT_SECTION: 
4
-1
DEMAND_SECTION: 
1 17
2 6
3 28
5 16
4 0
EOF
