benchmarks_vrp/CMT1/fixed_c/CMT1_5.tour
NAME: CMT1_5 solution
TYPE: TOUR
TOUR_SECTION:
4 3 1 2 5 -1
-1
EOF